JulietBench/Juliet_Based_Patch_Bench/linux/CWE-189-Numeric-Errors/CVE_2012_0038_fa8b18edd752a8b4e9d1ee2cd615b82c93cf8bba/solverxfs_acl_from_disk_Snippet_patch2.smt2
; benchmark generated from python API
(set-info :status unknown)
(declare-fun R () (_ BitVec 32))
(declare-fun rdi () (_ BitVec 64))
(assert
 (let (($x26 (and (distinct (_ bv10 32) R) true)))
 (let ((?x6 ((_ extract 31 0) rdi)))
 (let (($x12 (and (distinct R ?x6) true)))
 (let (($x25 (and $x12 $x26)))
 (let (($x18 (= (_ bv10 32) R)))
 (let (($x11 (= R ?x6)))
 (let (($x27 (and $x11 $x18)))
 (let (($x24 (or $x27 $x25)))
 (not $x24))))))))))
(check-sat)
